
--- Job M-2Rft.gms Start 03/17/23 18:01:37 41.2.0 5110e5ff WEX-WEI x86 64bit/MS Windows
--- Applying:
    D:\GAMS\41\gmsprmNT.txt
--- GAMS Parameters defined
    Input "G:\Mi unidad\5. TFG\src\gams\M-2Rft.gms"
    PageSize 0
    ScrDir "G:\Mi unidad\5. TFG\src\gams\225a\"
    SysDir D:\GAMS\41\
    LogOption 3
    ErrMsg 1
    ErrorLog 99
    IDE 1
    LstTitleLeftAligned 1
Licensee: GAMS Demo license for Antonio Sevilla Sastre   G221121|0002CO-GEN
          UCM, Spain                                               DL079880
          C:\Users\Antonio\Documents\GAMS\gamslice.txt
          antsev01@ucm.es, Antonio Sevilla Sastre                          
          Demo license for demonstration and instructional purposes only
Processor information: 1 socket(s), 14 core(s), and 20 thread(s) available
GAMS 41.2.0   Copyright (C) 1987-2022 GAMS Development. All rights reserved
--- Starting compilation
--- M-2Rft.gms(196) 3 Mb
--- Starting execution: elapsed 0:00:00.030
--- M-2Rft.gms(114) 4 Mb
--- Generating MIP model modelo1
--- M-2Rft.gms(193) 4 Mb
---   1,287 rows  513 columns  3,729 non-zeroes
---   456 discrete-columns
--- Range statistics (absolute non-zero finite values)
--- RHS       [min, max] : [ 4.000E-01, 7.000E+01] - Zero values observed as well
--- Bound     [min, max] : [ 1.000E+00, 1.000E+00] - Zero values observed as well
--- Matrix    [min, max] : [ 3.219E-01, 3.800E+01]
--- Executing CPLEX (Solvelink=2): elapsed 0:00:00.141

IBM ILOG CPLEX   41.2.0 5110e5ff Nov 14, 2022          WEI x86 64bit/MS Window

--- *** This solver runs with a demo license. No commercial use.
--- GMO setup time: 0.00s
--- Space for names approximately 0.04 Mb
--- Use option 'names no' to turn use of names off
--- GMO memory 0.70 Mb (peak 0.71 Mb)
--- Dictionary memory 0.00 Mb
--- Cplex 22.1.0.0 link memory 0.02 Mb (peak 0.12 Mb)
--- Starting Cplex

Version identifier: 22.1.0.0 | 2022-03-09 | 1a383f8ce
CPXPARAM_Advance                                 0
CPXPARAM_Threads                                 1
CPXPARAM_MIP_Display                             4
CPXPARAM_MIP_Pool_Capacity                       0
CPXPARAM_MIP_Tolerances_AbsMIPGap                0
Generic callback                                 0x50
Found incumbent of value 11.000000 after 0.00 sec. (0.02 ticks)
Tried aggregator 3 times.
MIP Presolve eliminated 1111 rows and 353 columns.
MIP Presolve modified 26 coefficients.
Aggregator did 14 substitutions.
Reduced MIP has 161 rows, 146 columns, and 555 nonzeros.
Reduced MIP has 96 binaries, 2 generals, 0 SOSs, and 0 indicators.
Presolve time = 0.00 sec. (1.90 ticks)
Probing fixed 6 vars, tightened 0 bounds.
Probing time = 0.00 sec. (0.45 ticks)
Tried aggregator 2 times.
MIP Presolve eliminated 18 rows and 15 columns.
Aggregator did 1 substitutions.
Reduced MIP has 142 rows, 130 columns, and 483 nonzeros.
Reduced MIP has 83 binaries, 2 generals, 0 SOSs, and 0 indicators.
Presolve time = 0.00 sec. (0.44 ticks)
Probing time = 0.00 sec. (0.38 ticks)
Cover probing fixed 0 vars, tightened 1 bounds.
Tried aggregator 1 time.
Detecting symmetries...
MIP Presolve eliminated 3 rows and 0 columns.
MIP Presolve modified 6 coefficients.
Reduced MIP has 139 rows, 130 columns, and 477 nonzeros.
Reduced MIP has 83 binaries, 2 generals, 0 SOSs, and 0 indicators.
Presolve time = 0.00 sec. (0.42 ticks)
Probing time = 0.00 sec. (0.38 ticks)
Clique table members: 390.
MIP emphasis: balance optimality and feasibility.
MIP search method: dynamic search.
Parallel mode: none, using 1 thread.
Tried aggregator 1 time.
LP Presolve eliminated 4 rows and 7 columns.
Reduced LP has 135 rows, 123 columns, and 458 nonzeros.
Presolve time = 0.00 sec. (0.08 ticks)
Initializing dual steep norms . . .

Iteration log . . .
Iteration:     1   Dual objective     =             1.000000
Initializing dual steep norms . . .
Root relaxation solution time = 0.00 sec. (0.37 ticks)

        Nodes                                         Cuts/
   Node  Left     Objective  IInf  Best Integer    Best Bound    ItCnt     Gap

*     0+    0                           11.0000        1.0000            90.91%
Found incumbent of value 11.000000 after 0.01 sec. (4.84 ticks)
      0     0        1.0000    12       11.0000        1.0000       40   90.91%
*     0+    0                            6.0000        1.0000            83.33%
Found incumbent of value 6.000000 after 0.01 sec. (5.11 ticks)
      0     0        cutoff              6.0000                     41    0.00%
Elapsed time = 0.01 sec. (5.13 ticks, tree = 0.01 MB)

Root node processing (before b&c):
  Real time             =    0.01 sec. (5.14 ticks)
Sequential b&c:
  Real time             =    0.00 sec. (0.00 ticks)
                          ------------
Total (root+branch&cut) =    0.01 sec. (5.14 ticks)

--- MIP status (101): integer optimal solution.
--- Cplex Time: 0.01sec (det. 5.14 ticks)

--- Fixing integer variables and solving final LP...

Version identifier: 22.1.0.0 | 2022-03-09 | 1a383f8ce
CPXPARAM_Advance                                 2
CPXPARAM_Threads                                 1
CPXPARAM_MIP_Display                             4
CPXPARAM_MIP_Pool_Capacity                       0
CPXPARAM_MIP_Tolerances_AbsMIPGap                0
Tried aggregator 1 time.
LP Presolve eliminated 1243 rows and 483 columns.
Aggregator did 1 substitutions.
Reduced LP has 42 rows, 29 columns, and 84 nonzeros.
Presolve time = 0.00 sec. (0.55 ticks)

--- Fixed MIP status (1): optimal.
--- Cplex Time: 0.00sec (det. 0.98 ticks)


Proven optimal solution
MIP Solution:            6.000000    (41 iterations, 0 nodes)
Final Solve:             6.000000    (0 iterations)

Best possible:           6.000000
Absolute gap:            0.000000
Relative gap:            0.000000

--- Reading solution for model modelo1
*** Status: Normal completion
--- Job M-2Rft.gms Stop 03/17/23 18:01:37 elapsed 0:00:00.240
